Ga  N                                   
   1.00000000000000     
     3.2491659206629140   -0.0000000000000000   -0.0000000000000000
    -1.6245829603314570    2.8138603914154006   -0.0000000000000000
    -0.0000000000000000    0.0000000000000000    5.2740047753968282
   Ga   N 
     2     2
Direct
  0.3333330000000032  0.6666669999999968  0.9987843056856723
  0.6666669999999968  0.3333330000000032  0.4987843056856730
  0.3333330000000032  0.6666669999999968  0.3762156943143270
  0.6666669999999968  0.3333330000000032  0.8762156943143277
 
  0.00000000E+00  0.00000000E+00  0.00000000E+00
  0.00000000E+00  0.00000000E+00  0.00000000E+00
  0.00000000E+00  0.00000000E+00  0.00000000E+00
  0.00000000E+00  0.00000000E+00  0.00000000E+00
