Ga  N 
 1.0000000000000000
     3.1202138500714209    0.0000000000000000    0.0000000000000000
    -1.5601069250357105    2.7021846088619452    0.0000000000000000
     0.0000000000000000    0.0000000000000000    5.0834352643101042
   2   2
Cartesian
 -0.0000015601069255  1.8014573066361668  5.0789618412775113
  1.5601084851426361  0.9007273022257783  2.5372442091224583
 -0.0000015601069255  1.8014573066361668  1.9107616471488813
  1.5601084851426361  0.9007273022257783  4.4524792793039323
