INCAR created by Atomic Simulation Environment
 ISYM = 0
 ICHARG = 11
