KPOINTS created by Atomic Simulation Environment
30 
Reciprocal
0.500000 0.250000 0.750000 1.0 
0.466667 0.233333 0.700000 1.0 
0.433333 0.216667 0.650000 1.0 
0.400000 0.200000 0.600000 1.0 
0.366667 0.183333 0.550000 1.0 
0.333333 0.166667 0.500000 1.0 
0.300000 0.150000 0.450000 1.0 
0.266667 0.133333 0.400000 1.0 
0.233333 0.116667 0.350000 1.0 
0.200000 0.100000 0.300000 1.0 
0.166667 0.083333 0.250000 1.0 
0.133333 0.066667 0.200000 1.0 
0.100000 0.050000 0.150000 1.0 
0.066667 0.033333 0.100000 1.0 
0.033333 0.016667 0.050000 1.0 
0.000000 0.000000 0.000000 1.0 
0.035714 0.000000 0.035714 1.0 
0.071429 0.000000 0.071429 1.0 
0.107143 0.000000 0.107143 1.0 
0.142857 0.000000 0.142857 1.0 
0.178571 0.000000 0.178571 1.0 
0.214286 0.000000 0.214286 1.0 
0.250000 0.000000 0.250000 1.0 
0.285714 0.000000 0.285714 1.0 
0.321429 0.000000 0.321429 1.0 
0.357143 0.000000 0.357143 1.0 
0.392857 0.000000 0.392857 1.0 
0.428571 0.000000 0.428571 1.0 
0.464286 0.000000 0.464286 1.0 
0.500000 0.000000 0.500000 1.0 
