Ga  N 
 1.0000000000000000
     4.4069767050342579    0.0000000000000000    0.0000000000000000
     0.0000000000000000    4.4069767050342579    0.0000000000000000
     0.0000000000000000    0.0000000000000000    4.4069767050342579
   4   4
Cartesian
  1.1017441762585645  1.1017441762585645  1.1017441762585645
  3.3052325287756927  3.3052325287756927  1.1017441762585645
  3.3052325287756927  1.1017441762585645  3.3052325287756927
  1.1017441762585645  3.3052325287756927  3.3052325287756927
  0.0000000000000000  0.0000000000000000  2.2034883525171289
  2.2034883525171289  0.0000000000000000  0.0000000000000000
  0.0000000000000000  2.2034883525171289  0.0000000000000000
  2.2034883525171289  2.2034883525171289  2.2034883525171289
