Si 
 1.0000000000000000
     3.8100939996549492    0.0000000000000000    0.0000000000000000
     0.0000000000000000    3.8100939996549492    0.0000000000000000
     0.0000000000000000    0.0000000000000000    3.8100939996549492
   4
Cartesian
  0.0000000000000000  0.0000000000000000  0.0000000000000000
  1.9050469998274746  1.9050469998274746  0.0000000000000000
  1.9050469998274746  0.0000000000000000  1.9050469998274746
  0.0000000000000000  1.9050469998274746  1.9050469998274746
