Si 
 1.0000000000000000
     3.8217579083938977    0.0000000000000000    0.0000000000000000
     0.0000000000000000    3.8217579083938977    0.0000000000000000
     0.0000000000000000    0.0000000000000000    3.8217579083938977
   4
Cartesian
  0.0000000000000000  0.0000000000000000  0.0000000000000000
  1.9108789541969489  1.9108789541969489  0.0000000000000000
  1.9108789541969489  0.0000000000000000  1.9108789541969489
  0.0000000000000000  1.9108789541969489  1.9108789541969489
