Si 
 1.0000000000000000
     3.8217579083938973    0.0000000000000000    0.0000000000000000
     0.0000000000000000    3.8217579083938973    0.0000000000000000
     0.0000000000000000    0.0000000000000000    3.8217579083938973
   4
Cartesian
  0.0000000000000000  0.0000000000000000  0.0000000000000000
  1.9108789541969486  1.9108789541969486  0.0000000000000000
  1.9108789541969486  0.0000000000000000  1.9108789541969486
  0.0000000000000000  1.9108789541969486  1.9108789541969486
