Ga  N                                   
   1.00000000000000     
     3.2475054316405823    0.0000000000000000    0.0000000000000000
    -1.6237527158202911    2.8124223582860775    0.0000000000000000
     0.0000000000000000    0.0000000000000000    5.2908180097535515
   Ga   N 
     2     2
Direct
  0.3333330000000032  0.6666669999999968  0.9991199999999978
  0.6666669999999968  0.3333330000000032  0.4991199999999978
  0.3333330000000032  0.6666669999999968  0.3758800000000022
  0.6666669999999968  0.3333330000000032  0.8758800000000022
 
  0.00000000E+00  0.00000000E+00  0.00000000E+00
  0.00000000E+00  0.00000000E+00  0.00000000E+00
  0.00000000E+00  0.00000000E+00  0.00000000E+00
  0.00000000E+00  0.00000000E+00  0.00000000E+00
