Ga  N 
 1.0000000000000000
     3.2475054316405823    0.0000000000000000    0.0000000000000000
    -1.6237527158202911    2.8124223582860775    0.0000000000000000
     0.0000000000000000    0.0000000000000000    5.2908180097535515
   2   2
Cartesian
 -0.0000016237527168  1.8749491763315047  5.2861620899049688
  1.6237543395730072  0.9374731819545733  2.6407530850281913
 -0.0000016237527168  1.8749491763315047  1.9887126735061640
  1.6237543395730072  0.9374731819545733  4.6341216783829404
