Si 
 1.0000000000000000
     3.8088365559536164    0.0000000000000000    0.0000000000000000
     0.0000000000000000    3.8088365559536164    0.0000000000000000
     0.0000000000000000    0.0000000000000000    3.8088365559536164
   4
Cartesian
  0.0000000000000000  0.0000000000000000  0.0000000000000000
  1.9044182779768082  1.9044182779768082  0.0000000000000000
  1.9044182779768082  0.0000000000000000  1.9044182779768082
  0.0000000000000000  1.9044182779768082  1.9044182779768082
