Si                                      
   1.00000000000000     
     4.8368562500000003    0.0000000000000000    0.0000000000000000
     0.0000000000000000    4.8368562500000003    0.0000000000000000
     0.0000000000000000    0.0000000000000000    4.8368562500000003
   Si
     4
Direct
  0.0000000000000000  0.0000000000000000  0.0000000000000000
  0.3999999999999986  0.3999999999999986  0.0000000000000000
  0.3999999999999986  0.0000000000000000  0.3999999999999986
  0.0000000000000000  0.3999999999999986  0.3999999999999986
 
  0.00000000E+00  0.00000000E+00  0.00000000E+00
  0.00000000E+00  0.00000000E+00  0.00000000E+00
  0.00000000E+00  0.00000000E+00  0.00000000E+00
  0.00000000E+00  0.00000000E+00  0.00000000E+00
