INCAR created by Atomic Simulation Environment
 ENCUT = 520.000000
 SIGMA = 0.050000
 EDIFF = 1.00e-04
 SYMPREC = 1.00e-04
 ALGO = Fast
 PREC = Acc
 GGA = PE
 LORBIT = 11
 ISMEAR = -5
 IBRION = -1
 ISIF = 0
 LREAL = Auto
