Si 
 1.0000000000000000
     4.8368562500000003    0.0000000000000000    0.0000000000000000
     0.0000000000000000    4.8368562500000003    0.0000000000000000
     0.0000000000000000    0.0000000000000000    4.8368562500000003
   4
Cartesian
  0.0000000000000000  0.0000000000000000  0.0000000000000000
  1.9347425000000000  1.9347425000000000  0.0000000000000000
  1.9347425000000000  0.0000000000000000  1.9347425000000000
  0.0000000000000000  1.9347425000000000  1.9347425000000000
